benchmarks_vrp/CMT11/fixed_c_size/CMT11_0.vrp
NAME: CMT11_0
TYPE: CVRP
COMMENT: 1042.11 - Cluster Nr.0
DIMENSION: 16
CAPACITY: 200
EDGE_WEIGHT_TYPE: EUC_2D
NODE_COORD_TYPE: TWOD_COORDS
NODE_COORD_SECTION: 
3 25 1
9 34 6
13 31 5
4 35 7
12 32 5
16 25 3
7 40 5
6 10 45
14 34 9
2 36 3
10 31 7
11 46 9
15 32 9
1 35 5
5 47 6
8 39 3
DEPOT_SECTION: 
6
-1
DEMAND_SECTION: 
16 7
3 25
15 5
11 19
4 5
5 17
6 0
1 15
10 14
9 15
7 13
12 6
13 13
14 11
8 12
2 18
EOF
