benchmarks_vrp/CMT11/fixed_c_size/CMT11_0.tour
NAME: CMT11_0 solution
TYPE: TOUR
TOUR_SECTION:
6 3 16 13 12 10 15 14 4 9 1 2 8 7 5 11 -1
-1
EOF